letting n =  10
letting blocks =  [[1, 4], [1, 5], [1, 7], [2, 2], [2, 9], [3, 1], [3, 2], [3, 10], [4, 4], [5, 8], [5, 9], [5, 10], [7, 5], [8, 8], [8, 9], [9, 3], [9, 4], [9, 5], [9, 7], [9, 9], [10, 4], [10, 9]]
